
  12    4
  10   10   10   10

   0   0   0   0   0   5 2 3 6 7 11 
   9  10  10  10  10   2 5 4 
   4  10  10  10  10   2 9 5 
   8  10  10  10  10   2 10 9 
   3  10  10  10  10   1 8 
  10  10  10  10  10   1 8 
   6  10  10  10  10   1 8 
   2  10  10  10  10   1 12
   8  10  10  10  10   1 12
   7  10  10  10  10   1 12
   1  10  10  10  10   1 12
   0   0   0   0   0   0 
